objective value:                                  -14
t_n_6                                               1 	(obj:-1)
t_n_138                                             1 	(obj:-1)
t_n_290                                             1 	(obj:-1)
t_n_354                                             1 	(obj:-1)
t_n_427                                             1 	(obj:-1)
t_n_525                                             1 	(obj:-1)
t_n_574                                             1 	(obj:-1)
t_n_640                                             1 	(obj:-1)
t_n_746                                             1 	(obj:-1)
t_n_800                                             1 	(obj:-1)
t_n_842                                             1 	(obj:-1)
t_n_879                                             1 	(obj:-1)
t_n_897                                             1 	(obj:-1)
t_n_956                                             1 	(obj:-1)
